(set-logic QF_UF)
(set-info :smt-lib-version 2.0)
(set-info :category "crafted")
(set-info :status unsat)
(declare-sort U 0)
(declare-fun a () U)
(declare-fun b () U)
(declare-fun c () U)
(declare-fun d () U)
(assert (= a b))
(assert (not (= b c)))
(assert (= c d))
(assert (= a d))
(check-sat)
